Version identifier: 12.10.0.0 | 2019-11-26 | 843d4de
CPXPARAM_WorkMem                                 28672
Tried aggregator 2 times.
MIP Presolve eliminated 6 rows and 0 columns.
MIP Presolve added 12 rows and 0 columns.
Aggregator did 30 substitutions.
Reduced MIP has 48 rows, 50 columns, and 200 nonzeros.
Reduced MIP has 50 binaries, 0 generals, 0 SOSs, and 0 indicators.
Presolve time = 0,00 sec. (0,37 ticks)
Found incumbent of value 199,000000 after 0,00 sec. (0,43 ticks)
Probing time = 0,00 sec. (0,13 ticks)
Tried aggregator 1 time.
Detecting symmetries...
Reduced MIP has 48 rows, 50 columns, and 200 nonzeros.
Reduced MIP has 50 binaries, 0 generals, 0 SOSs, and 0 indicators.
Presolve time = 0,00 sec. (0,16 ticks)
Probing time = 0,00 sec. (0,13 ticks)
Clique table members: 200.
MIP emphasis: balance optimality and feasibility.
MIP search method: dynamic search.
Parallel mode: deterministic, using up to 16 threads.
Root relaxation solution time = 0,00 sec. (0,07 ticks)

        Nodes                                         Cuts/
   Node  Left     Objective  IInf  Best Integer    Best Bound    ItCnt     Gap

*     0+    0                          199,0000        0,0000           100,00%
*     0+    0                          174,0000        0,0000           100,00%
*     0+    0                          172,0000        0,0000           100,00%
      0     0      112,0000    33      172,0000      112,0000        9   34,88%
      0     0      116,4000    33      172,0000     Cuts: 112       31   32,33%
      0     0      120,0000    33      172,0000     Cuts: 112       43   30,23%
*     0+    0                          164,0000      120,0000            26,83%
      0     0      120,0000    33      164,0000       Cuts: 2       44   26,83%
      0     0      120,0000    33      164,0000   ZeroHalf: 3       45   26,83%
      0     0        cutoff            164,0000      164,0000       45    0,00%
Elapsed time = 0,01 sec. (6,95 ticks, tree = 0,01 MB, solutions = 4)

Clique cuts applied:  44
Cover cuts applied:  30
Implied bound cuts applied:  27
Mixed integer rounding cuts applied:  7
Zero-half cuts applied:  10

Root node processing (before b&c):
  Real time             =    0,01 sec. (6,96 ticks)
Parallel b&c, 16 threads:
  Real time             =    0,00 sec. (0,00 ticks)
  Sync time (average)   =    0,00 sec.
  Wait time (average)   =    0,00 sec.
                          ------------
Total (root+branch&cut) =    0,01 sec. (6,96 ticks)
